results_rootrelaxation/bin012_050_031.srr.sol
solution status: optimal solution found
objective value:                                    0
_var127_                           0.0454161552139396 	(obj:0)
_var597_                            0.264052772603247 	(obj:0)
_var645_                           0.0858630653617507 	(obj:0)
_var649_                            0.128434992769776 	(obj:0)
_var653_                           0.0173466128910646 	(obj:0)
_var659_                            0.355941026429506 	(obj:0)
_var663_                            0.156443118408824 	(obj:0)
_var664_                             0.22695370706868 	(obj:0)
_var670_                           0.0723306403176377 	(obj:0)
_var684_                            0.474554432547964 	(obj:0)
_var687_                              0.3031946841107 	(obj:0)
_var688_                            0.184366107817201 	(obj:0)
_var693_                            0.370999126612399 	(obj:0)
_var694_                             0.16104428693536 	(obj:0)
_var696_                           0.0878576251142557 	(obj:0)
_var697_                            0.195588841986311 	(obj:0)
_var700_                             0.32689855912224 	(obj:0)
_var702_                           0.0653939435525626 	(obj:0)
_var707_                            0.210941742251544 	(obj:0)
_var714_                            0.149709308482026 	(obj:0)
_var716_                           0.0630325779504781 	(obj:0)
_var720_                            0.327828280646289 	(obj:0)
_var721_                            0.195465585055328 	(obj:0)
_var722_                           0.0261774848978529 	(obj:0)
_var723_                            0.285266095195013 	(obj:0)
_var724_                             0.04710447867401 	(obj:0)
_var729_                            0.131239829185377 	(obj:0)
_var732_                           0.0894150675032883 	(obj:0)
_var735_                            0.484355264595781 	(obj:0)
_var737_                            0.136465330070201 	(obj:0)
_var745_                            0.106219519323382 	(obj:0)
_var746_                            0.332719590058459 	(obj:0)
_var748_                            0.241670415202197 	(obj:0)
_var749_                            0.132794306631053 	(obj:0)
_var752_                            0.227890205606115 	(obj:0)
_var753_                            0.207513420604325 	(obj:0)
_var754_                            0.305579345696301 	(obj:0)
_var755_                            0.218399845484095 	(obj:0)
_var756_                            0.515644735404219 	(obj:0)
_var758_                           0.0970248064103772 	(obj:0)
_var759_                            0.118292768672576 	(obj:0)
_var760_                            0.239739389950196 	(obj:0)
_var763_                            0.223322922146516 	(obj:0)
_var764_                           0.0390148425064448 	(obj:0)
_var765_                            0.179757738713943 	(obj:0)
_var766_                           0.0126912282574363 	(obj:0)
_var771_                            0.403389438532913 	(obj:0)
_var772_                            0.426699399641324 	(obj:0)
_var773_                           0.0830251910058876 	(obj:0)
_var774_                            0.108897710301314 	(obj:0)
_var775_                            0.101716617490962 	(obj:0)
_var777_                            0.175125226500494 	(obj:0)
_var779_                           0.0704267231191881 	(obj:0)
_var780_                            0.163334917460212 	(obj:0)
_var783_                           0.0747644352502964 	(obj:0)
_var784_                           0.0664397214308656 	(obj:0)
_var788_                             0.14987746312669 	(obj:0)
_var789_                           0.0928696500773851 	(obj:0)
_var791_                            0.161659300900242 	(obj:0)
_var792_                          0.00413736667285106 	(obj:0)
_var797_                           0.0207321546412797 	(obj:0)
_var799_                          0.00496712724944318 	(obj:0)
_var805_                           0.0239817325604156 	(obj:0)
