results_rootrelaxation/bin012_050_031.srr.log
SCIP version 8.0.3.5 [precision: 8 byte] [memory: block] [mode: optimized] [LP solver: Soplex 6.0.1.3] [GitHash: 438792519e]
Copyright (c) 2002-2023 Zuse Institute Berlin (ZIB)

External libraries: 
  Readline 8.1         GNU library for command line editing (gnu.org/s/readline)
  Soplex 6.0.1.3       Linear Programming Solver developed at Zuse Institute Berlin (soplex.zib.de) [GitHash: 713be0fe]
  CppAD 20180000.0     Algorithmic Differentiation of C++ algorithms developed by B. Bell (github.com/coin-or/CppAD)
  ZLIB 1.2.11          General purpose compression library by J. Gailly and M. Adler (zlib.net)
  bliss 0.77           Computing Graph Automorphism Groups by T. Junttila and P. Kaski (www.tcs.hut.fi/Software/bliss/)

user parameter file <scip.set> not found - using default parameters

srr/relaxation = TRUE

read problem <instances/bin012_050_031.srr>
============

Original problem: 
original problem has 0 variables (0 bin, 0 int, 0 impl, 0 cont) and 77 constraints

presolving:
presolving (1 rounds: 1 fast, 1 medium, 1 exhaustive):
 0 deleted vars, 0 deleted constraints, 0 added constraints, 0 tightened bounds, 0 added holes, 0 changed sides, 0 changed coefficients
 0 implications, 0 cliques
presolved problem has 0 variables (0 bin, 0 int, 0 impl, 0 cont) and 77 constraints
     77 constraints of type <linear>
Presolving Time: 0.00

 time | node  | left  |LP iter|LP it/n|mem/heur|mdpt |vars |cons |rows |cuts |sepa|confs|strbr|  dualbound   | primalbound  |  gap   | compl. 
  0.0s|     1 |     0 |     1 |     - |   710k |   0 |   1 |  77 |  77 |   0 |  0 |   0 |   0 |      --      |      --      |    Inf | unknown
r 0.0s|     1 |     0 |   645 |     - |simplero|   0 | 642 |  77 |  77 |   0 |  0 |   0 |   0 |      --      | 1.284602e+01 |    Inf | unknown
r 0.0s|     1 |     0 |   664 |     - |simplero|   0 | 653 |  77 |  77 |   0 |  0 |   0 |   0 |      --      | 1.230449e+01 |    Inf | unknown
r 0.0s|     1 |     0 |   715 |     - |simplero|   0 | 664 |  77 |  77 |   0 |  0 |   0 |   0 |      --      | 1.120243e+01 |    Inf | unknown
r 0.0s|     1 |     0 |   765 |     - |simplero|   0 | 675 |  77 |  77 |   0 |  0 |   0 |   0 |      --      | 1.027679e+01 |    Inf | unknown
r 0.0s|     1 |     0 |   816 |     - |simplero|   0 | 686 |  77 |  77 |   0 |  0 |   0 |   0 |      --      | 9.304316e+00 |    Inf | unknown
r 0.0s|     1 |     0 |   888 |     - |simplero|   0 | 697 |  77 |  77 |   0 |  0 |   0 |   0 |      --      | 7.163697e+00 |    Inf | unknown
r 0.0s|     1 |     0 |   949 |     - |simplero|   0 | 708 |  77 |  77 |   0 |  0 |   0 |   0 |      --      | 5.540067e+00 |    Inf | unknown
r 0.0s|     1 |     0 |   993 |     - |simplero|   0 | 719 |  77 |  77 |   0 |  0 |   0 |   0 |      --      | 4.495711e+00 |    Inf | unknown
r 0.0s|     1 |     0 |   999 |     - |simplero|   0 | 719 |  77 |  77 |   0 |  0 |   0 |   0 |      --      | 4.447302e+00 |    Inf | unknown
r 0.0s|     1 |     0 |  1037 |     - |simplero|   0 | 730 |  77 |  77 |   0 |  0 |   0 |   0 |      --      | 3.244094e+00 |    Inf | unknown
r 0.0s|     1 |     0 |  1044 |     - |simplero|   0 | 730 |  77 |  77 |   0 |  0 |   0 |   0 |      --      | 3.202223e+00 |    Inf | unknown
r 0.0s|     1 |     0 |  1079 |     - |simplero|   0 | 741 |  77 |  77 |   0 |  0 |   0 |   0 |      --      | 2.369809e+00 |    Inf | unknown
r 0.0s|     1 |     0 |  1081 |     - |simplero|   0 | 741 |  77 |  77 |   0 |  0 |   0 |   0 |      --      | 2.366836e+00 |    Inf | unknown
r 0.1s|     1 |     0 |  1103 |     - |simplero|   0 | 752 |  77 |  77 |   0 |  0 |   0 |   0 |      --      | 2.120856e+00 |    Inf | unknown
 time | node  | left  |LP iter|LP it/n|mem/heur|mdpt |vars |cons |rows |cuts |sepa|confs|strbr|  dualbound   | primalbound  |  gap   | compl. 
r 0.1s|     1 |     0 |  1118 |     - |simplero|   0 | 752 |  77 |  77 |   0 |  0 |   0 |   0 |      --      | 2.039812e+00 |    Inf | unknown
r 0.1s|     1 |     0 |  1124 |     - |simplero|   0 | 752 |  77 |  77 |   0 |  0 |   0 |   0 |      --      | 2.017462e+00 |    Inf | unknown
r 0.1s|     1 |     0 |  1164 |     - |simplero|   0 | 763 |  77 |  77 |   0 |  0 |   0 |   0 |      --      | 1.236110e+00 |    Inf | unknown
r 0.1s|     1 |     0 |  1185 |     - |simplero|   0 | 763 |  77 |  77 |   0 |  0 |   0 |   0 |      --      | 1.080264e+00 |    Inf | unknown
r 0.1s|     1 |     0 |  1231 |     - |simplero|   0 | 774 |  77 |  77 |   0 |  0 |   0 |   0 |      --      | 5.224875e-01 |    Inf | unknown
r 0.1s|     1 |     0 |  1263 |     - |simplero|   0 | 785 |  77 |  77 |   0 |  0 |   0 |   0 |      --      | 2.263402e-01 |    Inf | unknown
r 0.1s|     1 |     0 |  1272 |     - |simplero|   0 | 785 |  77 |  77 |   0 |  0 |   0 |   0 |      --      | 1.907819e-01 |    Inf | unknown
r 0.1s|     1 |     0 |  1278 |     - |simplero|   0 | 785 |  77 |  77 |   0 |  0 |   0 |   0 |      --      | 1.872949e-01 |    Inf | unknown
r 0.1s|     1 |     0 |  1317 |     - |simplero|   0 | 796 |  77 |  77 |   0 |  0 |   0 |   0 |      --      | 5.604072e-02 |    Inf | unknown
r 0.1s|     1 |     0 |  1331 |     - |simplero|   0 | 796 |  77 |  77 |   0 |  0 |   0 |   0 |      --      | 2.640054e-02 |    Inf | unknown
r 0.1s|     1 |     0 |  1334 |     - |simplero|   0 | 807 |  77 |  77 |   0 |  0 |   0 |   0 |      --      | 0.000000e+00 |    Inf | unknown
  0.1s|     1 |     0 |  1334 |     - |  3801k |   0 | 807 |  77 |  77 |   0 |  0 |   0 |   0 | 0.000000e+00 | 0.000000e+00 |   0.00%| unknown
  0.1s|     1 |     0 |  1334 |     - |  3801k |   0 | 807 |  77 |  77 |   0 |  0 |   0 |   0 | 0.000000e+00 | 0.000000e+00 |   0.00%| unknown

SCIP Status        : problem is solved [optimal solution found]
Solving Time (sec) : 0.06
Solving Nodes      : 1
Primal Bound       : +0.00000000000000e+00 (25 solutions)
Dual Bound         : +0.00000000000000e+00
Gap                : 0.00 %

written transformed problem to file <results_rootrelaxation/bin012_050_031.srr.lp>
written transformed problem to file <results_rootrelaxation/bin012_050_031.srr.cip>


SCIP version 8.0.3.5 [precision: 8 byte] [memory: block] [mode: optimized] [LP solver: Soplex 6.0.1.3] [GitHash: 438792519e]
Copyright (c) 2002-2023 Zuse Institute Berlin (ZIB)

External libraries: 
  Readline 8.1         GNU library for command line editing (gnu.org/s/readline)
  Soplex 6.0.1.3       Linear Programming Solver developed at Zuse Institute Berlin (soplex.zib.de) [GitHash: 713be0fe]
  CppAD 20180000.0     Algorithmic Differentiation of C++ algorithms developed by B. Bell (github.com/coin-or/CppAD)
  ZLIB 1.2.11          General purpose compression library by J. Gailly and M. Adler (zlib.net)
  bliss 0.77           Computing Graph Automorphism Groups by T. Junttila and P. Kaski (www.tcs.hut.fi/Software/bliss/)

user parameter file <scip.set> not found - using default parameters

srr/relaxation = TRUE

read problem <instances/bin012_050_031.srr>
============

Original problem: 
original problem has 0 variables (0 bin, 0 int, 0 impl, 0 cont) and 77 constraints

presolving:
presolving (1 rounds: 1 fast, 1 medium, 1 exhaustive):
 0 deleted vars, 0 deleted constraints, 0 added constraints, 0 tightened bounds, 0 added holes, 0 changed sides, 0 changed coefficients
 0 implications, 0 cliques
presolved problem has 0 variables (0 bin, 0 int, 0 impl, 0 cont) and 77 constraints
     77 constraints of type <linear>
Presolving Time: 0.00

 time | node  | left  |LP iter|LP it/n|mem/heur|mdpt |vars |cons |rows |cuts |sepa|confs|strbr|  dualbound   | primalbound  |  gap   | compl. 
  0.0s|     1 |     0 |     1 |     - |   710k |   0 |   1 |  77 |  77 |   0 |  0 |   0 |   0 |      --      |      --      |    Inf | unknown
r 0.0s|     1 |     0 |   645 |     - |simplero|   0 | 642 |  77 |  77 |   0 |  0 |   0 |   0 |      --      | 1.284602e+01 |    Inf | unknown
r 0.0s|     1 |     0 |   664 |     - |simplero|   0 | 653 |  77 |  77 |   0 |  0 |   0 |   0 |      --      | 1.230449e+01 |    Inf | unknown
r 0.0s|     1 |     0 |   715 |     - |simplero|   0 | 664 |  77 |  77 |   0 |  0 |   0 |   0 |      --      | 1.120243e+01 |    Inf | unknown
r 0.0s|     1 |     0 |   765 |     - |simplero|   0 | 675 |  77 |  77 |   0 |  0 |   0 |   0 |      --      | 1.027679e+01 |    Inf | unknown
r 0.0s|     1 |     0 |   816 |     - |simplero|   0 | 686 |  77 |  77 |   0 |  0 |   0 |   0 |      --      | 9.304316e+00 |    Inf | unknown
r 0.0s|     1 |     0 |   888 |     - |simplero|   0 | 697 |  77 |  77 |   0 |  0 |   0 |   0 |      --      | 7.163697e+00 |    Inf | unknown
r 0.1s|     1 |     0 |   949 |     - |simplero|   0 | 708 |  77 |  77 |   0 |  0 |   0 |   0 |      --      | 5.540067e+00 |    Inf | unknown
r 0.1s|     1 |     0 |   993 |     - |simplero|   0 | 719 |  77 |  77 |   0 |  0 |   0 |   0 |      --      | 4.495711e+00 |    Inf | unknown
r 0.1s|     1 |     0 |   999 |     - |simplero|   0 | 719 |  77 |  77 |   0 |  0 |   0 |   0 |      --      | 4.447302e+00 |    Inf | unknown
r 0.1s|     1 |     0 |  1037 |     - |simplero|   0 | 730 |  77 |  77 |   0 |  0 |   0 |   0 |      --      | 3.244094e+00 |    Inf | unknown
r 0.1s|     1 |     0 |  1044 |     - |simplero|   0 | 730 |  77 |  77 |   0 |  0 |   0 |   0 |      --      | 3.202223e+00 |    Inf | unknown
r 0.1s|     1 |     0 |  1079 |     - |simplero|   0 | 741 |  77 |  77 |   0 |  0 |   0 |   0 |      --      | 2.369809e+00 |    Inf | unknown
r 0.1s|     1 |     0 |  1081 |     - |simplero|   0 | 741 |  77 |  77 |   0 |  0 |   0 |   0 |      --      | 2.366836e+00 |    Inf | unknown
r 0.1s|     1 |     0 |  1103 |     - |simplero|   0 | 752 |  77 |  77 |   0 |  0 |   0 |   0 |      --      | 2.120856e+00 |    Inf | unknown
 time | node  | left  |LP iter|LP it/n|mem/heur|mdpt |vars |cons |rows |cuts |sepa|confs|strbr|  dualbound   | primalbound  |  gap   | compl. 
r 0.1s|     1 |     0 |  1118 |     - |simplero|   0 | 752 |  77 |  77 |   0 |  0 |   0 |   0 |      --      | 2.039812e+00 |    Inf | unknown
r 0.1s|     1 |     0 |  1124 |     - |simplero|   0 | 752 |  77 |  77 |   0 |  0 |   0 |   0 |      --      | 2.017462e+00 |    Inf | unknown
r 0.1s|     1 |     0 |  1164 |     - |simplero|   0 | 763 |  77 |  77 |   0 |  0 |   0 |   0 |      --      | 1.236110e+00 |    Inf | unknown
r 0.1s|     1 |     0 |  1185 |     - |simplero|   0 | 763 |  77 |  77 |   0 |  0 |   0 |   0 |      --      | 1.080264e+00 |    Inf | unknown
r 0.1s|     1 |     0 |  1231 |     - |simplero|   0 | 774 |  77 |  77 |   0 |  0 |   0 |   0 |      --      | 5.224875e-01 |    Inf | unknown
r 0.1s|     1 |     0 |  1263 |     - |simplero|   0 | 785 |  77 |  77 |   0 |  0 |   0 |   0 |      --      | 2.263402e-01 |    Inf | unknown
r 0.1s|     1 |     0 |  1272 |     - |simplero|   0 | 785 |  77 |  77 |   0 |  0 |   0 |   0 |      --      | 1.907819e-01 |    Inf | unknown
r 0.1s|     1 |     0 |  1278 |     - |simplero|   0 | 785 |  77 |  77 |   0 |  0 |   0 |   0 |      --      | 1.872949e-01 |    Inf | unknown
r 0.1s|     1 |     0 |  1317 |     - |simplero|   0 | 796 |  77 |  77 |   0 |  0 |   0 |   0 |      --      | 5.604072e-02 |    Inf | unknown
r 0.1s|     1 |     0 |  1331 |     - |simplero|   0 | 796 |  77 |  77 |   0 |  0 |   0 |   0 |      --      | 2.640054e-02 |    Inf | unknown
r 0.1s|     1 |     0 |  1334 |     - |simplero|   0 | 807 |  77 |  77 |   0 |  0 |   0 |   0 |      --      | 0.000000e+00 |    Inf | unknown
  0.1s|     1 |     0 |  1334 |     - |  3801k |   0 | 807 |  77 |  77 |   0 |  0 |   0 |   0 | 0.000000e+00 | 0.000000e+00 |   0.00%| unknown
  0.1s|     1 |     0 |  1334 |     - |  3801k |   0 | 807 |  77 |  77 |   0 |  0 |   0 |   0 | 0.000000e+00 | 0.000000e+00 |   0.00%| unknown

SCIP Status        : problem is solved [optimal solution found]
Solving Time (sec) : 0.08
Solving Nodes      : 1
Primal Bound       : +0.00000000000000e+00 (25 solutions)
Dual Bound         : +0.00000000000000e+00
Gap                : 0.00 %

written transformed problem to file <results_rootrelaxation/bin012_050_031.srr.lp>
written transformed problem to file <results_rootrelaxation/bin012_050_031.srr.cip>

written solution information to file <results_rootrelaxation/bin012_050_031.srr.sol>



